90
2812
4
66
43
15
36
0 5
0 6
0 8
0 9
0 10
0 11
0 12
0 13
0 14
0 15
0 16
0 17
0 20
0 21
0 22
0 23
0 25
0 26
0 27
0 28
0 29
0 31
0 32
0 33
0 34
0 36
0 37
0 38
0 40
0 41
0 42
0 43
0 44
0 45
0 46
0 47
0 48
0 49
0 53
0 54
0 55
0 58
0 59
0 61
0 63
0 64
0 67
0 68
0 69
0 70
0 71
0 72
0 73
0 75
0 77
0 78
0 79
0 80
0 81
0 82
0 83
0 84
0 85
0 88
0 89
1 2
1 5
1 6
1 7
1 9
1 10
1 11
1 12
1 13
1 15
1 16
1 17
1 18
1 19
1 20
1 23
1 24
1 26
1 27
1 29
1 30
1 31
1 32
1 33
1 35
1 36
1 37
1 38
1 39
1 40
1 41
1 42
1 43
1 44
1 46
1 47
1 48
1 49
1 50
1 51
1 52
1 53
1 54
1 55
1 57
1 58
1 60
1 62
1 63
1 64
1 65
1 66
1 67
1 70
1 71
1 72
1 76
1 77
1 78
1 79
1 80
1 81
1 83
1 84
1 85
1 86
1 87
2 3
2 4
2 5
2 6
2 7
2 8
2 12
2 13
2 15
2 18
2 21
2 22
2 23
2 25
2 27
2 28
2 30
2 31
2 32
2 33
2 35
2 36
2 38
2 41
2 42
2 43
2 46
2 50
2 51
2 52
2 53
2 54
2 57
2 61
2 62
2 63
2 65
2 66
2 67
2 68
2 69
2 70
2 71
2 72
2 73
2 74
2 75
2 76
2 77
2 78
2 79
2 82
2 83
2 84
2 85
2 86
2 87
2 89
3 4
3 6
3 7
3 10
3 11
3 12
3 13
3 14
3 16
3 17
3 18
3 19
3 21
3 23
3 25
3 26
3 27
3 28
3 30
3 31
3 34
3 35
3 36
3 38
3 39
3 42
3 43
3 44
3 46
3 48
3 49
3 52
3 53
3 54
3 55
3 57
3 59
3 60
3 63
3 65
3 66
3 68
3 69
3 72
3 73
3 74
3 75
3 77
3 78
3 80
3 81
3 83
3 84
3 85
3 86
3 87
3 88
3 89
4 6
4 7
4 10
4 12
4 13
4 15
4 16
4 18
4 19
4 21
4 23
4 24
4 25
4 29
4 30
4 31
4 33
4 34
4 35
4 36
4 37
4 39
4 40
4 43
4 44
4 46
4 47
4 48
4 49
4 50
4 53
4 56
4 60
4 61
4 62
4 65
4 66
4 67
4 68
4 69
4 70
4 71
4 72
4 73
4 74
4 75
4 76
4 77
4 78
4 80
4 81
4 83
4 84
4 85
4 87
4 88
4 89
5 7
5 9
5 13
5 14
5 15
5 16
5 17
5 18
5 19
5 20
5 21
5 22
5 23
5 25
5 30
5 31
5 32
5 33
5 34
5 37
5 39
5 40
5 42
5 44
5 45
5 46
5 47
5 48
5 49
5 52
5 53
5 54
5 56
5 57
5 58
5 59
5 62
5 63
5 64
5 65
5 66
5 67
5 68
5 72
5 73
5 75
5 77
5 78
5 79
5 81
5 83
5 84
5 87
5 89
6 7
6 8
6 10
6 13
6 14
6 18
6 20
6 21
6 22
6 23
6 24
6 25
6 28
6 29
6 31
6 36
6 40
6 43
6 44
6 45
6 46
6 47
6 48
6 49
6 50
6 51
6 52
6 53
6 55
6 57
6 58
6 59
6 60
6 61
6 62
6 64
6 65
6 67
6 69
6 70
6 72
6 75
6 76
6 80
6 82
6 83
6 85
6 86
6 87
6 88
6 89
7 8
7 9
7 10
7 12
7 13
7 14
7 15
7 17
7 18
7 19
7 20
7 21
7 22
7 23
7 24
7 25
7 26
7 27
7 29
7 30
7 33
7 34
7 35
7 36
7 37
7 40
7 42
7 43
7 44
7 45
7 46
7 47
7 48
7 49
7 50
7 51
7 52
7 54
7 55
7 56
7 58
7 61
7 62
7 63
7 64
7 65
7 66
7 68
7 69
7 70
7 72
7 73
7 74
7 75
7 78
7 79
7 80
7 81
7 82
7 83
7 84
7 85
7 86
7 87
7 88
8 9
8 10
8 11
8 12
8 15
8 16
8 17
8 18
8 19
8 20
8 21
8 22
8 23
8 25
8 26
8 27
8 28
8 29
8 30
8 32
8 34
8 35
8 36
8 38
8 39
8 42
8 43
8 44
8 49
8 50
8 51
8 52
8 53
8 54
8 55
8 57
8 58
8 59
8 61
8 62
8 64
8 66
8 68
8 69
8 70
8 71
8 73
8 75
8 76
8 79
8 81
8 82
8 84
8 85
8 86
8 87
8 89
9 10
9 11
9 13
9 14
9 15
9 16
9 17
9 19
9 20
9 21
9 22
9 23
9 24
9 25
9 26
9 28
9 29
9 30
9 33
9 34
9 35
9 36
9 38
9 39
9 40
9 41
9 44
9 45
9 46
9 47
9 48
9 49
9 50
9 51
9 52
9 53
9 54
9 55
9 56
9 57
9 58
9 60
9 61
9 62
9 64
9 65
9 67
9 68
9 70
9 71
9 72
9 73
9 74
9 75
9 77
9 80
9 81
9 82
9 84
9 85
9 86
9 87
9 88
10 11
10 12
10 13
10 14
10 15
10 17
10 18
10 19
10 20
10 21
10 22
10 23
10 24
10 29
10 30
10 31
10 34
10 35
10 36
10 38
10 39
10 40
10 41
10 42
10 43
10 44
10 46
10 47
10 48
10 49
10 50
10 51
10 52
10 53
10 54
10 55
10 56
10 58
10 59
10 60
10 61
10 62
10 63
10 65
10 68
10 69
10 70
10 71
10 72
10 74
10 75
10 76
10 79
10 80
10 82
10 85
10 86
10 87
10 89
11 12
11 13
11 15
11 16
11 18
11 19
11 20
11 21
11 22
11 23
11 24
11 25
11 27
11 28
11 29
11 30
11 31
11 32
11 33
11 34
11 35
11 36
11 37
11 38
11 39
11 40
11 43
11 44
11 45
11 46
11 47
11 48
11 50
11 51
11 55
11 57
11 58
11 59
11 60
11 61
11 62
11 63
11 66
11 67
11 68
11 71
11 72
11 73
11 75
11 77
11 79
11 80
11 81
11 82
11 84
11 85
11 87
12 13
12 15
12 16
12 17
12 18
12 20
12 22
12 25
12 26
12 27
12 28
12 29
12 30
12 31
12 32
12 33
12 36
12 37
12 38
12 39
12 40
12 42
12 43
12 45
12 46
12 47
12 48
12 50
12 53
12 55
12 57
12 58
12 59
12 60
12 62
12 63
12 64
12 66
12 68
12 71
12 72
12 73
12 74
12 75
12 76
12 77
12 79
12 80
12 81
12 82
12 83
12 85
12 87
12 88
12 89
13 15
13 16
13 17
13 19
13 22
13 23
13 24
13 25
13 26
13 27
13 28
13 29
13 31
13 32
13 35
13 36
13 37
13 39
13 40
13 41
13 42
13 43
13 44
13 45
13 47
13 48
13 49
13 52
13 54
13 55
13 57
13 58
13 59
13 60
13 61
13 62
13 63
13 65
13 67
13 69
13 70
13 72
13 73
13 74
13 75
13 78
13 80
13 81
13 83
13 84
13 86
13 89
14 15
14 17
14 18
14 20
14 22
14 24
14 25
14 29
14 30
14 31
14 32
14 33
14 34
14 35
14 36
14 39
14 40
14 41
14 47
14 48
14 49
14 51
14 52
14 53
14 56
14 58
14 59
14 60
14 61
14 62
14 64
14 65
14 66
14 69
14 70
14 72
14 74
14 77
14 79
14 80
14 81
14 83
14 84
14 87
15 16
15 17
15 18
15 19
15 20
15 22
15 23
15 24
15 25
15 28
15 29
15 31
15 32
15 33
15 34
15 35
15 38
15 39
15 40
15 41
15 42
15 43
15 45
15 46
15 47
15 48
15 49
15 50
15 51
15 52
15 53
15 54
15 56
15 59
15 60
15 61
15 62
15 63
15 64
15 65
15 66
15 67
15 68
15 69
15 71
15 72
15 74
15 75
15 76
15 77
15 78
15 79
15 81
15 82
15 83
15 85
15 86
15 87
15 89
16 17
16 18
16 19
16 20
16 22
16 23
16 25
16 26
16 29
16 30
16 31
16 33
16 34
16 35
16 36
16 37
16 38
16 39
16 40
16 41
16 42
16 43
16 44
16 45
16 47
16 48
16 50
16 51
16 52
16 53
16 55
16 56
16 57
16 58
16 59
16 60
16 61
16 62
16 64
16 65
16 66
16 67
16 68
16 69
16 70
16 72
16 73
16 76
16 77
16 78
16 80
16 84
16 86
16 88
16 89
17 19
17 21
17 22
17 23
17 25
17 29
17 30
17 31
17 32
17 33
17 34
17 35
17 36
17 37
17 38
17 39
17 41
17 43
17 44
17 45
17 47
17 48
17 49
17 50
17 52
17 53
17 54
17 56
17 58
17 59
17 60
17 64
17 66
17 69
17 70
17 71
17 72
17 74
17 75
17 76
17 77
17 81
17 82
17 83
17 84
17 85
17 86
17 87
17 88
18 21
18 22
18 24
18 25
18 26
18 27
18 30
18 31
18 32
18 33
18 34
18 35
18 36
18 37
18 39
18 40
18 41
18 42
18 43
18 44
18 45
18 46
18 48
18 49
18 50
18 51
18 54
18 55
18 56
18 61
18 62
18 63
18 64
18 65
18 67
18 69
18 70
18 71
18 72
18 73
18 74
18 75
18 76
18 77
18 78
18 81
18 82
18 86
18 87
18 88
18 89
19 20
19 21
19 22
19 24
19 25
19 26
19 27
19 28
19 29
19 32
19 33
19 35
19 36
19 37
19 38
19 39
19 40
19 42
19 43
19 45
19 46
19 47
19 48
19 49
19 50
19 51
19 52
19 53
19 54
19 55
19 57
19 59
19 60
19 61
19 63
19 66
19 68
19 72
19 74
19 76
19 77
19 79
19 82
19 85
19 86
19 87
19 88
19 89
20 21
20 22
20 24
20 25
20 26
20 27
20 28
20 29
20 30
20 31
20 32
20 34
20 35
20 36
20 37
20 38
20 39
20 41
20 42
20 43
20 45
20 46
20 48
20 50
20 51
20 52
20 54
20 55
20 57
20 58
20 59
20 60
20 61
20 64
20 65
20 66
20 67
20 68
20 69
20 70
20 71
20 73
20 74
20 75
20 76
20 77
20 78
20 79
20 80
20 81
20 82
20 83
20 84
20 86
20 87
20 88
21 23
21 25
21 29
21 31
21 33
21 34
21 35
21 37
21 38
21 39
21 41
21 42
21 43
21 44
21 45
21 46
21 47
21 51
21 52
21 54
21 56
21 57
21 58
21 59
21 60
21 61
21 62
21 63
21 64
21 65
21 67
21 68
21 69
21 70
21 72
21 74
21 76
21 77
21 79
21 82
21 84
21 85
21 86
21 87
21 88
21 89
22 24
22 25
22 26
22 28
22 29
22 30
22 31
22 32
22 33
22 34
22 35
22 36
22 38
22 39
22 40
22 41
22 43
22 45
22 46
22 47
22 48
22 49
22 50
22 51
22 52
22 53
22 54
22 56
22 57
22 58
22 59
22 60
22 61
22 62
22 65
22 67
22 68
22 69
22 70
22 71
22 75
22 77
22 78
22 79
22 80
22 81
22 82
22 83
22 84
22 85
22 86
22 87
22 88
22 89
23 24
23 25
23 26
23 28
23 32
23 34
23 38
23 41
23 42
23 44
23 46
23 47
23 48
23 49
23 51
23 52
23 53
23 54
23 56
23 58
23 59
23 61
23 62
23 63
23 64
23 66
23 67
23 68
23 70
23 72
23 73
23 74
23 75
23 76
23 78
23 80
23 81
23 83
23 84
23 85
23 89
24 26
24 27
24 29
24 30
24 32
24 34
24 36
24 37
24 38
24 39
24 42
24 43
24 45
24 46
24 47
24 52
24 53
24 55
24 56
24 57
24 58
24 60
24 61
24 63
24 64
24 65
24 66
24 67
24 68
24 69
24 73
24 74
24 75
24 81
24 83
24 84
24 86
24 87
24 88
25 26
25 28
25 29
25 30
25 31
25 32
25 34
25 35
25 36
25 37
25 38
25 40
25 42
25 43
25 44
25 46
25 48
25 49
25 50
25 51
25 53
25 55
25 56
25 57
25 58
25 59
25 62
25 63
25 64
25 65
25 67
25 68
25 72
25 73
25 75
25 77
25 79
25 80
25 81
25 82
25 83
25 84
25 85
25 87
25 89
26 27
26 29
26 30
26 31
26 32
26 33
26 35
26 36
26 37
26 39
26 41
26 42
26 43
26 44
26 45
26 46
26 47
26 48
26 49
26 50
26 51
26 52
26 55
26 57
26 61
26 63
26 64
26 65
26 66
26 69
26 74
26 75
26 77
26 79
26 80
26 82
26 83
26 84
26 85
26 86
26 88
26 89
27 28
27 29
27 30
27 33
27 34
27 35
27 36
27 37
27 39
27 40
27 41
27 42
27 43
27 45
27 46
27 48
27 49
27 50
27 51
27 52
27 55
27 56
27 57
27 58
27 62
27 64
27 66
27 67
27 68
27 69
27 70
27 71
27 73
27 77
27 78
27 81
27 82
27 83
27 87
27 88
27 89
28 30
28 31
28 32
28 34
28 37
28 38
28 39
28 40
28 41
28 43
28 44
28 45
28 46
28 47
28 49
28 50
28 53
28 54
28 56
28 58
28 61
28 62
28 63
28 65
28 66
28 67
28 68
28 70
28 71
28 72
28 73
28 74
28 75
28 76
28 78
28 81
28 82
28 83
28 84
28 87
29 31
29 32
29 35
29 36
29 37
29 38
29 40
29 41
29 44
29 45
29 46
29 49
29 50
29 51
29 52
29 53
29 55
29 56
29 57
29 58
29 59
29 60
29 61
29 62
29 64
29 65
29 66
29 68
29 70
29 71
29 73
29 74
29 75
29 76
29 77
29 78
29 80
29 81
29 82
29 83
29 84
29 85
29 86
29 87
29 88
29 89
30 31
30 33
30 34
30 38
30 39
30 41
30 42
30 43
30 44
30 45
30 46
30 47
30 48
30 49
30 50
30 52
30 53
30 54
30 55
30 56
30 57
30 58
30 60
30 61
30 62
30 64
30 65
30 66
30 69
30 70
30 71
30 72
30 74
30 75
30 76
30 77
30 78
30 79
30 80
30 81
30 83
30 84
30 86
30 87
30 88
30 89
31 32
31 33
31 36
31 37
31 38
31 40
31 41
31 42
31 43
31 44
31 46
31 47
31 48
31 50
31 51
31 52
31 53
31 54
31 58
31 59
31 60
31 61
31 62
31 64
31 66
31 67
31 68
31 69
31 70
31 71
31 72
31 74
31 75
31 80
31 81
31 82
31 85
31 86
31 87
31 88
32 33
32 34
32 35
32 36
32 37
32 38
32 39
32 40
32 42
32 43
32 44
32 45
32 46
32 47
32 49
32 52
32 54
32 55
32 56
32 57
32 58
32 60
32 61
32 64
32 65
32 66
32 67
32 68
32 69
32 70
32 71
32 75
32 77
32 78
32 81
32 83
32 84
32 86
32 87
32 89
33 35
33 36
33 37
33 38
33 39
33 40
33 41
33 42
33 43
33 45
33 46
33 50
33 51
33 53
33 55
33 56
33 57
33 58
33 59
33 62
33 63
33 64
33 65
33 66
33 68
33 71
33 72
33 74
33 76
33 77
33 78
33 80
33 82
33 83
33 86
33 87
33 88
33 89
34 35
34 36
34 37
34 38
34 42
34 43
34 46
34 47
34 48
34 50
34 51
34 53
34 55
34 56
34 57
34 58
34 59
34 60
34 61
34 62
34 63
34 65
34 67
34 68
34 70
34 71
34 74
34 75
34 76
34 77
34 78
34 79
34 80
34 81
34 83
34 84
34 85
34 88
34 89
35 36
35 37
35 40
35 41
35 42
35 43
35 45
35 46
35 49
35 51
35 52
35 53
35 54
35 55
35 57
35 58
35 59
35 60
35 61
35 65
35 66
35 67
35 68
35 69
35 71
35 74
35 75
35 77
35 78
35 79
35 81
35 82
35 83
35 84
35 85
35 87
35 89
36 37
36 39
36 40
36 41
36 42
36 45
36 46
36 48
36 49
36 51
36 52
36 53
36 54
36 55
36 56
36 58
36 59
36 62
36 63
36 64
36 65
36 66
36 67
36 68
36 69
36 70
36 71
36 72
36 73
36 74
36 75
36 77
36 78
36 80
36 81
36 82
36 83
36 84
36 85
36 86
36 87
36 88
36 89
37 38
37 39
37 41
37 44
37 45
37 46
37 48
37 50
37 51
37 52
37 53
37 54
37 55
37 56
37 57
37 59
37 60
37 61
37 63
37 64
37 65
37 66
37 67
37 68
37 70
37 71
37 74
37 75
37 76
37 77
37 78
37 79
37 80
37 81
37 82
37 83
37 84
37 87
37 89
38 40
38 42
38 43
38 45
38 47
38 50
38 51
38 52
38 53
38 54
38 55
38 57
38 58
38 59
38 60
38 62
38 63
38 68
38 69
38 70
38 71
38 72
38 73
38 74
38 76
38 77
38 78
38 79
38 81
38 82
38 83
38 86
38 87
38 88
38 89
39 40
39 41
39 43
39 44
39 45
39 46
39 47
39 48
39 51
39 52
39 54
39 55
39 57
39 58
39 59
39 60
39 62
39 63
39 64
39 65
39 66
39 68
39 69
39 71
39 72
39 74
39 75
39 76
39 77
39 78
39 80
39 81
39 82
39 84
39 86
39 87
39 88
39 89
40 41
40 43
40 44
40 46
40 47
40 48
40 49
40 50
40 51
40 52
40 53
40 57
40 58
40 59
40 60
40 62
40 63
40 64
40 65
40 66
40 69
40 70
40 71
40 72
40 74
40 75
40 77
40 78
40 79
40 82
40 84
40 86
40 88
41 43
41 44
41 45
41 48
41 49
41 50
41 51
41 53
41 54
41 55
41 56
41 59
41 61
41 62
41 63
41 64
41 65
41 68
41 69
41 70
41 71
41 74
41 75
41 76
41 77
41 78
41 80
41 81
41 82
41 84
41 85
41 86
41 88
41 89
42 43
42 44
42 45
42 46
42 47
42 48
42 49
42 50
42 54
42 55
42 56
42 57
42 58
42 60
42 62
42 63
42 64
42 65
42 66
42 67
42 68
42 70
42 71
42 72
42 74
42 76
42 77
42 78
42 80
42 82
42 83
42 84
42 85
42 86
42 89
43 45
43 46
43 47
43 48
43 49
43 50
43 52
43 54
43 55
43 56
43 57
43 59
43 60
43 61
43 62
43 63
43 65
43 66
43 67
43 71
43 72
43 73
43 75
43 76
43 77
43 81
43 82
43 83
43 84
43 85
43 86
43 87
43 89
44 45
44 46
44 47
44 48
44 49
44 50
44 51
44 52
44 53
44 55
44 57
44 58
44 59
44 62
44 63
44 64
44 65
44 66
44 67
44 68
44 71
44 72
44 73
44 74
44 75
44 79
44 80
44 81
44 82
44 83
44 84
44 85
44 86
44 89
45 46
45 47
45 49
45 50
45 51
45 52
45 53
45 54
45 55
45 57
45 58
45 59
45 60
45 61
45 62
45 63
45 64
45 65
45 66
45 67
45 68
45 69
45 70
45 71
45 72
45 73
45 74
45 75
45 76
45 77
45 78
45 82
45 83
45 86
45 87
45 89
46 47
46 48
46 52
46 53
46 54
46 56
46 57
46 58
46 60
46 61
46 62
46 64
46 66
46 68
46 70
46 72
46 74
46 75
46 77
46 78
46 79
46 82
46 83
46 84
46 85
46 86
46 87
46 88
46 89
47 48
47 49
47 50
47 51
47 54
47 55
47 56
47 57
47 58
47 59
47 60
47 61
47 62
47 64
47 67
47 69
47 70
47 73
47 74
47 76
47 77
47 78
47 80
47 82
47 83
47 84
47 85
47 87
47 88
47 89
48 49
48 50
48 51
48 53
48 54
48 55
48 56
48 57
48 59
48 60
48 62
48 63
48 64
48 65
48 66
48 67
48 68
48 69
48 70
48 76
48 77
48 78
48 79
48 81
48 83
48 84
48 86
48 87
48 89
49 52
49 53
49 54
49 56
49 58
49 59
49 60
49 62
49 64
49 65
49 67
49 68
49 69
49 70
49 71
49 72
49 74
49 76
49 80
49 82
49 83
49 84
49 86
50 53
50 55
50 56
50 57
50 58
50 59
50 60
50 61
50 62
50 66
50 68
50 69
50 72
50 73
50 74
50 75
50 76
50 78
50 79
50 80
50 83
50 84
50 86
50 88
50 89
51 52
51 54
51 55
51 57
51 58
51 60
51 61
51 63
51 64
51 67
51 68
51 71
51 72
51 73
51 76
51 77
51 78
51 80
51 81
51 82
51 87
51 88
51 89
52 53
52 54
52 58
52 59
52 61
52 62
52 63
52 64
52 65
52 66
52 67
52 69
52 72
52 73
52 74
52 76
52 78
52 79
52 80
52 82
52 84
52 85
52 86
52 87
52 88
53 54
53 55
53 57
53 59
53 60
53 62
53 63
53 64
53 65
53 66
53 68
53 69
53 72
53 74
53 75
53 76
53 77
53 79
53 80
53 84
53 85
53 86
53 88
53 89
54 55
54 56
54 57
54 59
54 62
54 63
54 64
54 65
54 66
54 67
54 72
54 74
54 76
54 78
54 79
54 80
54 81
54 82
54 83
54 84
54 87
54 89
55 56
55 58
55 60
55 61
55 62
55 64
55 65
55 66
55 67
55 68
55 70
55 71
55 72
55 73
55 74
55 75
55 77
55 78
55 79
55 80
55 81
55 82
55 83
55 85
55 87
55 88
55 89
56 57
56 59
56 60
56 61
56 62
56 63
56 64
56 65
56 66
56 68
56 70
56 71
56 72
56 73
56 74
56 75
56 77
56 78
56 80
56 81
56 82
56 83
56 87
56 89
57 58
57 59
57 60
57 61
57 63
57 64
57 65
57 66
57 67
57 68
57 69
57 71
57 73
57 74
57 75
57 77
57 78
57 79
57 81
57 85
57 87
57 88
57 89
58 59
58 60
58 62
58 63
58 64
58 65
58 66
58 68
58 70
58 71
58 72
58 73
58 74
58 76
58 77
58 78
58 80
58 81
58 82
58 83
58 84
58 85
58 86
58 87
58 88
58 89
59 60
59 61
59 62
59 64
59 67
59 69
59 70
59 71
59 72
59 74
59 76
59 77
59 79
59 80
59 81
59 82
59 85
59 86
59 87
59 88
59 89
60 64
60 65
60 66
60 67
60 68
60 69
60 70
60 71
60 72
60 73
60 76
60 77
60 78
60 80
60 81
60 82
60 84
60 85
60 87
60 88
61 62
61 63
61 68
61 70
61 71
61 72
61 73
61 74
61 76
61 77
61 78
61 81
61 83
61 84
61 87
61 88
62 63
62 64
62 65
62 66
62 68
62 71
62 75
62 77
62 79
62 80
62 81
62 82
62 83
62 84
62 86
62 89
63 64
63 65
63 66
63 67
63 68
63 69
63 70
63 71
63 72
63 73
63 74
63 75
63 78
63 81
63 84
63 85
63 86
63 89
64 65
64 66
64 67
64 68
64 69
64 70
64 73
64 74
64 75
64 77
64 78
64 79
64 80
64 81
64 82
64 84
64 85
64 86
64 87
64 88
65 68
65 71
65 72
65 73
65 74
65 75
65 77
65 79
65 81
65 82
65 83
65 85
65 87
65 88
66 69
66 71
66 72
66 74
66 75
66 79
66 80
66 82
66 83
66 85
66 87
66 88
66 89
67 69
67 70
67 71
67 73
67 74
67 75
67 76
67 77
67 80
67 83
67 84
67 85
67 88
67 89
68 71
68 73
68 74
68 76
68 78
68 79
68 81
68 82
68 83
68 84
68 85
68 86
68 87
68 88
69 70
69 72
69 73
69 76
69 77
69 78
69 81
69 82
69 84
69 87
70 72
70 73
70 74
70 76
70 77
70 78
70 79
70 80
70 81
70 82
70 83
70 84
70 87
70 88
70 89
71 72
71 73
71 74
71 75
71 76
71 77
71 78
71 79
71 81
71 82
71 84
71 86
71 87
71 88
72 73
72 74
72 75
72 76
72 77
72 78
72 79
72 80
72 82
72 86
72 88
72 89
73 75
73 76
73 77
73 78
73 80
73 81
73 83
73 85
73 88
73 89
74 75
74 77
74 80
74 81
74 84
74 85
74 86
74 87
74 88
75 76
75 77
75 78
75 79
75 81
75 82
75 84
75 85
75 87
75 89
76 77
76 79
76 80
76 82
76 84
76 85
76 87
76 88
77 78
77 79
77 80
77 81
77 84
77 86
77 88
77 89
78 79
78 80
78 81
78 84
78 85
78 86
78 89
79 80
79 81
79 84
79 85
79 88
79 89
80 82
80 83
80 84
80 86
80 87
80 89
81 82
81 83
81 85
81 87
82 83
82 85
82 86
82 87
82 88
82 89
83 84
83 85
83 86
83 87
83 88
83 89
84 85
84 87
84 88
85 87
85 89
86 87
86 88
86 89
87 88
87 89
88 89
51 20 40 64 77 36 29 43 44 79 46 37 48 38 75 32 12 7 73 39 85 34 54 33 60 4 87
65 30 45 5 57 81 1 62 22 89 26 83 24 17 76 80 25 19 58 68 52 72 6 11 10 70 27
50 21 49 28 41 55 0 71 47 86 53 42 84 88 15 82 69 56 74 23 31 61 78 16 2 67 18
13 14 63 66 3 35 8 9 59
